NAME : instances/clustered-diverse-tsp/instance-1.tsp
COMMENT : No Comment
TYPE : TSP
DIMENSION: 50
EDGE_WEIGHT_TYPE : EUC_2D
NODE_COORD_SECTION
1 1285 1567 
2 1599 1287 
3 771 118 
4 1085 1523 
5 750 -13 
6 189 499 
7 1022 1520 
8 1013 624 
9 722 50 
10 1124 1621 
11 347 1501 
12 913 527 
13 662 -29 
14 529 1128 
15 1966 860 
16 493 1026 
17 89 498 
18 89 536 
19 1846 944 
20 1080 1593 
21 184 450 
22 956 1614 
23 707 4 
24 122 601 
25 1789 987 
26 694 148 
27 698 117 
28 820 121 
29 1000 557 
30 193 432 
31 112 451 
32 531 1019 
33 1017 569 
34 630 1157 
35 1806 940 
36 507 1098 
37 872 700 
38 1949 911 
39 988 517 
40 747 -25 
41 626 77 
42 955 1537 
43 945 1480 
44 661 32 
45 811 -27 
46 907 709 
47 1026 1448 
48 620 1080 
49 664 12 
50 702 56 
EOF
